node
#name	v	h	weight
1	0	0	0
2	0	0	50871
3	0	0	25506
4	0	0	0
5	0	0	0
6	0	0	0
7	0	0	0
8	0	0	0
9	0	0	0
10	0	0	0
11	0	0	51782
12	0	0	79707
13	0	0	0
14	0	0	0
15	0	0	0
16	0	0	0
17	0	0	0
18	0	0	0
19	0	0	0
20	0	0	65415
21	0	0	64696
22	0	0	0
23	0	0	0
24	0	0	0
25	0	0	0
26	0	0	0
27	0	0	0
28	0	0	0
29	0	0	0
30	0	0	27259
31	0	0	0
32	0	0	0
33	0	0	0
34	0	0	0
35	0	0	14066
36	0	0	0
37	0	0	0
38	0	0	0
39	0	0	0
40	0	0	0
41	0	0	0
42	0	0	0
43	0	0	55818
44	0	0	0
45	0	0	0
46	0	0	0
47	0	0	0
48	0	0	0
49	0	0	0
50	0	0	0
51	0	0	0
52	0	0	86122
53	0	0	0
54	0	0	0
55	0	0	0
56	0	0	0
57	0	0	63991
58	0	0	0
59	0	0	0
60	0	0	0
61	0	0	0
62	0	0	0
63	0	0	0
64	0	0	59371
65	0	0	0
66	0	0	0
67	0	0	54780
68	0	0	0
69	0	0	0
70	0	0	57381
71	0	0	0
72	0	0	0
73	0	0	0
74	0	0	0
75	0	0	0
76	0	0	0
77	0	0	46045
78	0	0	0
79	0	0	0
80	0	0	0
81	0	0	98072
82	0	0	0
83	0	0	0
84	0	0	0
85	0	0	0
86	0	0	89845
87	0	0	67317
88	0	0	78704
89	0	0	0
90	0	0	0
91	0	0	7271
92	0	0	0
93	0	0	0
94	0	0	34859
95	0	0	8875
96	0	0	0
97	0	0	0
98	0	0	0
99	0	0	55132
100	0	0	0
101	0	0	0
102	0	0	36552
103	0	0	0
104	0	0	96605
105	0	0	0
106	0	0	0
107	0	0	0
108	0	0	0
109	0	0	0
110	0	0	0
111	0	0	0
112	0	0	0
113	0	0	0
114	0	0	0
115	0	0	0
116	0	0	0
117	0	0	0
118	0	0	0
119	0	0	0
120	0	0	84838
121	0	0	0
122	0	0	15959
123	0	0	0
124	0	0	0
125	0	0	0
126	0	0	0
127	0	0	0
128	0	0	69111
129	0	0	0
130	0	0	89660
131	0	0	0
132	0	0	0
133	0	0	0
134	0	0	26693
135	0	0	0
136	0	0	0
137	0	0	0
138	0	0	90198
139	0	0	0
140	0	0	0
141	0	0	47566
142	0	0	0
143	0	0	0
144	0	0	0
145	0	0	0
146	0	0	0
147	0	0	0
148	0	0	0
149	0	0	51818
150	0	0	0
151	0	0	0
152	0	0	87045
153	0	0	0
154	0	0	87330
155	0	0	97704
156	0	0	0
157	0	0	0
158	0	0	71828
159	0	0	0
160	0	0	0
161	0	0	0
162	0	0	0
163	0	0	0
164	0	0	0
165	0	0	0
166	0	0	0
167	0	0	0
168	0	0	0
169	0	0	0
170	0	0	0
171	0	0	0
172	0	0	0
173	0	0	0
174	0	0	0
175	0	0	31238
176	0	0	0
177	0	0	0
178	0	0	0
179	0	0	0
180	0	0	47603
181	0	0	32684
182	0	0	0
183	0	0	0
184	0	0	0
185	0	0	0
186	0	0	0
187	0	0	0
188	0	0	0
189	0	0	0
190	0	0	0
191	0	0	60597
192	0	0	0
193	0	0	94490
194	0	0	0
195	0	0	0
196	0	0	0
197	0	0	51769
198	0	0	0
199	0	0	0
200	0	0	0
201	0	0	32509
202	0	0	0
203	0	0	0
204	0	0	0
205	0	0	0
206	0	0	0
207	0	0	0
208	0	0	0
209	0	0	0
210	0	0	0
211	0	0	97022
212	0	0	0
213	0	0	0
214	0	0	0
215	0	0	0
216	0	0	0
217	0	0	0
218	0	0	0
219	0	0	0
220	0	0	0
221	0	0	0
222	0	0	0
223	0	0	16736
224	0	0	0
225	0	0	0
226	0	0	0
227	0	0	0
228	0	0	0
229	0	0	0
230	0	0	0
231	0	0	0
232	0	0	0
233	0	0	0
234	0	0	18464
235	0	0	0
236	0	0	0
237	0	0	0
238	0	0	79638
239	0	0	0
240	0	0	48281
241	0	0	0
242	0	0	0
243	0	0	0
244	0	0	0
245	0	0	25528
246	0	0	35518
247	0	0	0
248	0	0	0
249	0	0	0
250	0	0	0
251	0	0	38201
252	0	0	44339
253	0	0	10623
254	0	0	53227
255	0	0	0
256	0	0	71691
257	0	0	96127
258	0	0	0
259	0	0	75766
260	0	0	0
261	0	0	0
262	0	0	67212
263	0	0	69301
264	0	0	13150
265	0	0	0
266	0	0	48669
267	0	0	0
268	0	0	0
269	0	0	45247
270	0	0	0
271	0	0	0
272	0	0	0
273	0	0	63724
274	0	0	0
275	0	0	16951
276	0	0	0
277	0	0	0
278	0	0	0
279	0	0	0
280	0	0	0
281	0	0	86615
282	0	0	89875
283	0	0	33560
284	0	0	0
285	0	0	2862
286	0	0	0
287	0	0	0
288	0	0	0
289	0	0	0
290	0	0	0
291	0	0	0
292	0	0	0
293	0	0	0
294	0	0	0
295	0	0	21527
296	0	0	0
297	0	0	85251
298	0	0	0
299	0	0	0
300	0	0	12293
301	0	0	0
302	0	0	0
303	0	0	0
304	0	0	4791
305	0	0	0
306	0	0	94666
307	0	0	0
308	0	0	0
309	0	0	0
310	0	0	0
311	0	0	0
312	0	0	28864
313	0	0	0
314	0	0	10341
315	0	0	0
316	0	0	0
317	0	0	0
318	0	0	0
319	0	0	0
320	0	0	57283
321	0	0	99521
322	0	0	50460
323	0	0	36995
324	0	0	0
325	0	0	0
326	0	0	47129
327	0	0	0
328	0	0	0
329	0	0	0
330	0	0	0
331	0	0	0
332	0	0	0
333	0	0	0
334	0	0	0
335	0	0	0
336	0	0	0
337	0	0	0
338	0	0	0
339	0	0	0
340	0	0	0
341	0	0	0
342	0	0	0
343	0	0	0
344	0	0	0
345	0	0	0
346	0	0	0
347	0	0	43179
348	0	0	0
349	0	0	0
350	0	0	0
351	0	0	0
352	0	0	0
353	0	0	0
354	0	0	0
355	0	0	0
356	0	0	0
357	0	0	0
358	0	0	0
359	0	0	0
360	0	0	0
361	0	0	74671
362	0	0	54231
363	0	0	0
364	0	0	0
365	0	0	0
366	0	0	71507
367	0	0	5872
368	0	0	0
369	0	0	0
370	0	0	0
371	0	0	0
372	0	0	0
373	0	0	0
374	0	0	73581
375	0	0	98545
376	0	0	0
377	0	0	0
378	0	0	52034
379	0	0	0
380	0	0	0
381	0	0	0
382	0	0	0
383	0	0	0
384	0	0	41113
385	0	0	28505
386	0	0	0
387	0	0	0
388	0	0	23914
389	0	0	0
390	0	0	0
391	0	0	0
392	0	0	11213
393	0	0	0
394	0	0	0
395	0	0	0
396	0	0	39841
397	0	0	0
398	0	0	0
399	0	0	0
400	0	0	0
link
#link	x	y	length	RIN	notes
1	1	4	2342	na	na
2	1	41	74922	na	na
3	1	50	15333	na	na
4	1	85	40401	na	na
5	1	114	18791	na	na
6	1	173	62243	na	na
7	1	188	44619	na	na
8	1	236	18674	na	na
9	1	385	26038	na	na
10	2	99	85961	na	na
11	2	205	28441	na	na
12	2	302	79033	na	na
13	2	313	45687	na	na
14	2	383	44584	na	na
15	3	7	415	na	na
16	3	74	36960	na	na
17	3	177	81057	na	na
18	3	249	17828	na	na
19	3	258	52521	na	na
20	3	336	33838	na	na
21	5	204	65126	na	na
22	5	341	57571	na	na
23	5	352	79261	na	na
24	5	354	64318	na	na
25	5	364	93154	na	na
26	5	391	53491	na	na
27	5	393	46646	na	na
28	5	399	62871	na	na
29	6	27	96894	na	na
30	6	72	53887	na	na
31	6	100	84019	na	na
32	6	198	62869	na	na
33	6	208	56876	na	na
34	6	232	50125	na	na
35	6	256	54149	na	na
36	6	275	58928	na	na
37	6	302	32905	na	na
38	7	69	53903	na	na
39	7	162	18527	na	na
40	7	175	66477	na	na
41	7	254	68004	na	na
42	7	258	334	na	na
43	7	302	42976	na	na
44	8	16	58671	na	na
45	8	33	90115	na	na
46	8	35	66792	na	na
47	8	87	93211	na	na
48	8	149	335	na	na
49	8	213	89614	na	na
50	8	264	99437	na	na
51	8	328	35730	na	na
52	9	95	40793	na	na
53	9	226	4334	na	na
54	9	316	225	na	na
55	10	24	12116	na	na
56	10	65	7748	na	na
57	10	73	71326	na	na
58	10	324	53706	na	na
59	10	362	6829	na	na
60	11	15	62512	na	na
61	11	33	92070	na	na
62	11	117	19190	na	na
63	11	135	59646	na	na
64	11	166	25997	na	na
65	11	192	68921	na	na
66	11	327	78351	na	na
67	12	64	74168	na	na
68	12	189	56789	na	na
69	12	297	54070	na	na
70	12	298	53004	na	na
71	12	356	86155	na	na
72	13	118	84884	na	na
73	13	157	88508	na	na
74	13	183	48801	na	na
75	13	213	1053	na	na
76	13	223	33747	na	na
77	13	312	6013	na	na
78	14	47	18597	na	na
79	14	62	27708	na	na
80	14	118	93014	na	na
81	14	128	91971	na	na
82	14	137	83815	na	na
83	14	218	98376	na	na
84	14	249	14942	na	na
85	14	340	11282	na	na
86	15	40	39687	na	na
87	15	124	20274	na	na
88	15	158	39858	na	na
89	15	334	52383	na	na
90	15	357	89575	na	na
91	15	395	93235	na	na
92	16	74	30464	na	na
93	16	78	86508	na	na
94	16	172	9441	na	na
95	16	201	47343	na	na
96	16	263	8137	na	na
97	16	301	81714	na	na
98	16	392	72639	na	na
99	17	52	38046	na	na
100	17	313	80653	na	na
101	17	327	77457	na	na
102	17	365	83718	na	na
103	17	389	61816	na	na
104	17	398	92144	na	na
105	18	37	59413	na	na
106	18	40	11652	na	na
107	18	53	88528	na	na
108	18	67	77403	na	na
109	18	89	15006	na	na
110	18	287	4531	na	na
111	19	242	103	na	na
112	19	371	60816	na	na
113	19	373	51886	na	na
114	20	26	43034	na	na
115	20	175	81805	na	na
116	20	339	12764	na	na
117	20	380	77170	na	na
118	21	92	40534	na	na
119	21	147	21864	na	na
120	21	153	74647	na	na
121	21	295	63461	na	na
122	21	343	28218	na	na
123	22	44	88795	na	na
124	22	88	37501	na	na
125	22	115	50922	na	na
126	22	117	88423	na	na
127	22	121	27004	na	na
128	22	128	20650	na	na
129	22	190	89056	na	na
130	22	228	2745	na	na
131	22	309	2380	na	na
132	23	152	77952	na	na
133	23	319	31093	na	na
134	23	375	69448	na	na
135	24	36	22238	na	na
136	24	61	12902	na	na
137	24	134	71183	na	na
138	24	294	34599	na	na
139	25	76	8899	na	na
140	25	111	81075	na	na
141	25	351	24409	na	na
142	25	365	94688	na	na
143	25	390	91695	na	na
144	26	54	40554	na	na
145	26	110	76503	na	na
146	26	113	91746	na	na
147	26	143	87187	na	na
148	26	180	90956	na	na
149	26	266	14356	na	na
150	27	100	84637	na	na
151	27	147	4901	na	na
152	27	176	79704	na	na
153	27	282	79384	na	na
154	27	320	68935	na	na
155	27	321	2634	na	na
156	27	366	50215	na	na
157	28	116	52621	na	na
158	28	283	55070	na	na
159	28	288	82235	na	na
160	28	370	93345	na	na
161	29	60	79999	na	na
162	29	96	96103	na	na
163	29	117	16538	na	na
164	29	252	7671	na	na
165	29	262	63046	na	na
166	30	43	90481	na	na
167	30	277	91513	na	na
168	30	291	3285	na	na
169	30	333	80537	na	na
170	31	82	5332	na	na
171	31	131	47552	na	na
172	31	187	43680	na	na
173	31	274	65589	na	na
174	31	351	11249	na	na
175	32	55	11730	na	na
176	32	74	7332	na	na
177	32	79	33144	na	na
178	32	132	70504	na	na
179	32	175	70619	na	na
180	32	216	57514	na	na
181	32	290	61407	na	na
182	33	124	38589	na	na
183	33	143	32846	na	na
184	33	373	41986	na	na
185	34	118	42903	na	na
186	34	151	50794	na	na
187	34	268	83846	na	na
188	34	301	6873	na	na
189	34	350	8791	na	na
190	35	38	95085	na	na
191	35	122	10805	na	na
192	35	155	92328	na	na
193	35	156	74103	na	na
194	35	164	86872	na	na
195	35	189	26119	na	na
196	35	200	21428	na	na
197	35	273	75821	na	na
198	36	97	61511	na	na
199	36	98	25040	na	na
200	36	102	33663	na	na
201	36	168	62113	na	na
202	36	240	1255	na	na
203	36	245	59685	na	na
204	36	248	34425	na	na
205	36	279	99792	na	na
206	36	335	85126	na	na
207	36	336	21920	na	na
208	36	337	30860	na	na
209	37	129	27828	na	na
210	37	143	91480	na	na
211	37	244	86390	na	na
212	37	318	81254	na	na
213	38	131	77568	na	na
214	38	202	68695	na	na
215	38	330	42898	na	na
216	39	87	68179	na	na
217	39	137	82814	na	na
218	39	146	17406	na	na
219	39	206	64850	na	na
220	39	247	53379	na	na
221	39	308	5711	na	na
222	39	313	41562	na	na
223	39	352	64607	na	na
224	40	64	19928	na	na
225	40	105	43792	na	na
226	40	158	85994	na	na
227	40	216	32998	na	na
228	40	249	72510	na	na
229	41	53	85025	na	na
230	41	119	11897	na	na
231	41	146	35827	na	na
232	41	148	47725	na	na
233	41	160	25369	na	na
234	41	210	4998	na	na
235	41	354	98314	na	na
236	41	393	39379	na	na
237	42	134	85401	na	na
238	42	147	47448	na	na
239	42	169	31938	na	na
240	42	188	3902	na	na
241	42	225	25379	na	na
242	42	240	30355	na	na
243	42	311	21122	na	na
244	42	328	94630	na	na
245	43	100	19274	na	na
246	43	154	69935	na	na
247	43	237	11961	na	na
248	43	375	48854	na	na
249	43	399	51426	na	na
250	44	81	66514	na	na
251	44	128	60891	na	na
252	44	173	44515	na	na
253	44	216	97158	na	na
254	44	261	4463	na	na
255	44	369	73057	na	na
256	45	141	69079	na	na
257	45	189	40413	na	na
258	45	328	62953	na	na
259	45	378	49408	na	na
260	46	111	13144	na	na
261	46	285	628	na	na
262	48	74	49340	na	na
263	48	118	42186	na	na
264	48	122	83452	na	na
265	48	175	56330	na	na
266	48	225	50961	na	na
267	48	375	45903	na	na
268	49	51	85851	na	na
269	49	144	10988	na	na
270	49	155	61069	na	na
271	49	167	91267	na	na
272	49	200	37809	na	na
273	49	241	69361	na	na
274	49	314	71632	na	na
275	49	397	79328	na	na
276	50	62	61442	na	na
277	50	86	95723	na	na
278	50	111	27765	na	na
279	50	152	2958	na	na
280	50	249	23426	na	na
281	50	322	42301	na	na
282	50	375	8764	na	na
283	50	397	93438	na	na
284	51	94	73873	na	na
285	51	129	25525	na	na
286	51	194	68654	na	na
287	51	242	24627	na	na
288	51	269	25464	na	na
289	51	271	50092	na	na
290	52	168	34749	na	na
291	52	308	92332	na	na
292	52	358	40267	na	na
293	53	60	11104	na	na
294	53	97	23562	na	na
295	53	159	12713	na	na
296	53	161	44919	na	na
297	54	131	23682	na	na
298	54	142	68902	na	na
299	54	189	17296	na	na
300	54	291	32814	na	na
301	54	320	32106	na	na
302	54	321	30867	na	na
303	55	117	76665	na	na
304	55	146	36837	na	na
305	55	247	19837	na	na
306	56	61	49808	na	na
307	56	193	83937	na	na
308	56	209	89259	na	na
309	56	238	87386	na	na
310	56	363	64374	na	na
311	56	392	70829	na	na
312	57	77	76054	na	na
313	57	238	84893	na	na
314	57	266	59856	na	na
315	57	294	3970	na	na
316	57	342	15164	na	na
317	57	354	42183	na	na
318	57	391	18581	na	na
319	58	236	5993	na	na
320	58	351	59546	na	na
321	59	61	25801	na	na
322	59	94	70249	na	na
323	59	164	55888	na	na
324	59	212	59764	na	na
325	59	286	8534	na	na
326	60	118	84960	na	na
327	60	197	30449	na	na
328	60	220	28882	na	na
329	60	237	39090	na	na
330	60	316	86156	na	na
331	60	394	95211	na	na
332	61	136	75413	na	na
333	62	80	28129	na	na
334	62	129	25705	na	na
335	63	91	79446	na	na
336	63	115	60700	na	na
337	63	243	39863	na	na
338	63	305	97523	na	na
339	63	319	63309	na	na
340	64	129	22165	na	na
341	64	196	72056	na	na
342	64	252	46508	na	na
343	64	292	46497	na	na
344	64	322	61099	na	na
345	65	127	93334	na	na
346	65	143	10765	na	na
347	65	182	57291	na	na
348	67	80	67002	na	na
349	67	120	51195	na	na
350	67	212	49497	na	na
351	67	222	64474	na	na
352	67	282	53879	na	na
353	67	341	80009	na	na
354	67	386	77721	na	na
355	68	187	75304	na	na
356	69	92	22008	na	na
357	69	137	87276	na	na
358	69	259	81945	na	na
359	69	264	45014	na	na
360	69	281	79289	na	na
361	69	298	8211	na	na
362	69	341	7032	na	na
363	70	122	3915	na	na
364	70	210	92481	na	na
365	70	344	25672	na	na
366	70	373	70886	na	na
367	71	99	70314	na	na
368	71	224	5110	na	na
369	71	258	51838	na	na
370	71	263	90291	na	na
371	71	278	54774	na	na
372	72	117	29346	na	na
373	72	252	13824	na	na
374	72	288	40629	na	na
375	72	392	92218	na	na
376	73	168	21677	na	na
377	73	186	11916	na	na
378	73	281	20418	na	na
379	74	103	52763	na	na
380	74	107	9637	na	na
381	74	118	30004	na	na
382	74	119	99502	na	na
383	74	171	12354	na	na
384	74	252	63917	na	na
385	74	322	85742	na	na
386	74	361	79315	na	na
387	74	368	52268	na	na
388	74	379	51935	na	na
389	74	380	31214	na	na
390	75	83	14277	na	na
391	75	101	61240	na	na
392	75	149	49500	na	na
393	75	209	48385	na	na
394	75	220	43904	na	na
395	75	232	32869	na	na
396	75	244	77471	na	na
397	75	396	40498	na	na
398	76	101	14754	na	na
399	76	124	6612	na	na
400	76	175	30981	na	na
401	76	243	77664	na	na
402	76	350	75810	na	na
403	76	362	76419	na	na
404	76	384	87135	na	na
405	77	113	54126	na	na
406	77	343	50585	na	na
407	78	329	70363	na	na
408	79	198	88971	na	na
409	79	369	89566	na	na
410	80	140	42488	na	na
411	80	226	37364	na	na
412	81	89	99735	na	na
413	81	104	92024	na	na
414	81	256	20442	na	na
415	81	327	91232	na	na
416	81	358	30552	na	na
417	81	372	43459	na	na
418	82	113	56611	na	na
419	82	140	13100	na	na
420	82	142	69712	na	na
421	82	340	14426	na	na
422	83	157	57536	na	na
423	83	161	22893	na	na
424	83	297	79942	na	na
425	83	349	12055	na	na
426	84	132	44608	na	na
427	84	248	55239	na	na
428	85	267	4850	na	na
429	85	341	42949	na	na
430	85	390	92229	na	na
431	86	91	36405	na	na
432	86	107	8317	na	na
433	86	146	48765	na	na
434	86	220	3485	na	na
435	86	316	25009	na	na
436	86	333	74848	na	na
437	86	357	16199	na	na
438	87	130	20969	na	na
439	87	275	33128	na	na
440	87	309	72522	na	na
441	88	179	10378	na	na
442	88	183	9584	na	na
443	88	202	30221	na	na
444	89	169	96793	na	na
445	89	192	87939	na	na
446	89	289	40583	na	na
447	90	101	68189	na	na
448	90	123	72379	na	na
449	90	212	48754	na	na
450	90	231	43474	na	na
451	90	263	97296	na	na
452	90	307	32746	na	na
453	91	99	1767	na	na
454	91	106	70418	na	na
455	91	116	19889	na	na
456	91	134	77291	na	na
457	91	182	86884	na	na
458	91	275	35307	na	na
459	91	364	12390	na	na
460	91	380	88508	na	na
461	92	203	82948	na	na
462	92	227	6040	na	na
463	92	243	1450	na	na
464	92	365	99926	na	na
465	93	144	80177	na	na
466	93	281	28037	na	na
467	93	319	80846	na	na
468	94	167	33216	na	na
469	94	242	70974	na	na
470	95	248	4394	na	na
471	95	304	80729	na	na
472	96	135	35895	na	na
473	96	181	39437	na	na
474	96	200	24555	na	na
475	96	205	18464	na	na
476	96	231	95259	na	na
477	96	348	94953	na	na
478	97	107	88251	na	na
479	97	139	4197	na	na
480	97	219	42122	na	na
481	97	342	77023	na	na
482	97	371	65659	na	na
483	98	224	78924	na	na
484	98	309	38297	na	na
485	98	330	97662	na	na
486	98	343	63048	na	na
487	98	389	64457	na	na
488	99	115	27346	na	na
489	99	180	28997	na	na
490	99	210	22114	na	na
491	99	373	59088	na	na
492	99	379	39623	na	na
493	100	126	95038	na	na
494	100	167	3016	na	na
495	100	274	99334	na	na
496	100	288	20007	na	na
497	100	302	61786	na	na
498	101	150	22268	na	na
499	101	234	90460	na	na
500	101	252	23583	na	na
501	102	114	19301	na	na
502	102	235	86641	na	na
503	102	400	55356	na	na
504	103	195	61912	na	na
505	103	264	59286	na	na
506	103	292	51969	na	na
507	103	317	16940	na	na
508	104	166	70042	na	na
509	104	177	39899	na	na
510	104	325	34517	na	na
511	104	328	37491	na	na
512	105	136	89432	na	na
513	105	237	68571	na	na
514	105	244	6723	na	na
515	105	265	11093	na	na
516	105	284	32060	na	na
517	105	290	53724	na	na
518	105	376	68997	na	na
519	105	391	49699	na	na
520	106	141	906	na	na
521	106	152	70304	na	na
522	106	178	99870	na	na
523	106	181	67953	na	na
524	106	300	46781	na	na
525	107	163	80959	na	na
526	107	172	6013	na	na
527	107	209	54942	na	na
528	107	219	23476	na	na
529	107	305	98432	na	na
530	107	308	55716	na	na
531	108	174	89542	na	na
532	108	257	34354	na	na
533	108	355	36114	na	na
534	108	384	19568	na	na
535	109	139	74034	na	na
536	109	194	49820	na	na
537	109	363	1039	na	na
538	110	154	59243	na	na
539	110	333	99909	na	na
540	111	128	83248	na	na
541	111	179	94559	na	na
542	111	211	94689	na	na
543	111	214	61821	na	na
544	111	222	98487	na	na
545	111	315	6397	na	na
546	111	378	41403	na	na
547	112	280	77732	na	na
548	112	295	54752	na	na
549	112	353	90510	na	na
550	112	357	47463	na	na
551	113	285	10511	na	na
552	113	380	12607	na	na
553	114	175	65387	na	na
554	114	186	47514	na	na
555	114	342	30506	na	na
556	114	392	96277	na	na
557	115	257	42962	na	na
558	116	137	3224	na	na
559	116	159	98106	na	na
560	116	218	35081	na	na
561	116	313	45573	na	na
562	117	125	53677	na	na
563	117	194	35460	na	na
564	117	285	29950	na	na
565	117	355	85115	na	na
566	117	365	2530	na	na
567	117	369	13688	na	na
568	118	145	49396	na	na
569	118	231	89984	na	na
570	118	237	74152	na	na
571	118	269	48629	na	na
572	118	341	99631	na	na
573	119	144	18371	na	na
574	120	160	93253	na	na
575	120	229	24384	na	na
576	120	261	35463	na	na
577	120	280	96140	na	na
578	120	322	42886	na	na
579	120	366	74197	na	na
580	121	230	67680	na	na
581	121	243	24722	na	na
582	121	341	8955	na	na
583	122	193	85551	na	na
584	122	241	67693	na	na
585	122	264	15970	na	na
586	122	317	25669	na	na
587	123	189	14799	na	na
588	123	214	35259	na	na
589	123	309	3770	na	na
590	124	129	23391	na	na
591	124	181	12290	na	na
592	124	192	67338	na	na
593	124	277	17960	na	na
594	124	286	67011	na	na
595	124	307	99490	na	na
596	124	378	32372	na	na
597	124	385	36819	na	na
598	125	128	50925	na	na
599	125	196	32010	na	na
600	125	228	97449	na	na
601	126	350	41304	na	na
602	127	198	92526	na	na
603	127	292	43609	na	na
604	128	147	6896	na	na
605	128	201	42529	na	na
606	128	278	67590	na	na
607	128	288	29127	na	na
608	130	307	23014	na	na
609	131	152	97874	na	na
610	132	134	12464	na	na
611	132	153	14503	na	na
612	132	254	36812	na	na
613	132	298	51063	na	na
614	132	370	34540	na	na
615	133	155	91283	na	na
616	133	277	1638	na	na
617	134	241	17120	na	na
618	134	317	79594	na	na
619	134	356	43368	na	na
620	135	138	86412	na	na
621	135	174	30018	na	na
622	135	197	82345	na	na
623	135	202	49593	na	na
624	135	208	27378	na	na
625	135	271	8375	na	na
626	135	329	27366	na	na
627	135	371	59091	na	na
628	136	145	9197	na	na
629	136	227	63876	na	na
630	136	305	59610	na	na
631	136	347	70969	na	na
632	136	354	66216	na	na
633	136	357	59733	na	na
634	136	395	72717	na	na
635	137	249	92619	na	na
636	137	268	7623	na	na
637	138	221	64139	na	na
638	138	241	20420	na	na
639	138	285	13070	na	na
640	138	314	72358	na	na
641	139	258	51061	na	na
642	139	304	91738	na	na
643	139	328	35888	na	na
644	140	150	47910	na	na
645	140	265	26517	na	na
646	140	281	86317	na	na
647	140	379	71844	na	na
648	141	200	3714	na	na
649	141	278	5822	na	na
650	142	295	20668	na	na
651	142	300	92653	na	na
652	142	314	14177	na	na
653	142	337	93641	na	na
654	142	386	56577	na	na
655	144	175	98531	na	na
656	144	357	86119	na	na
657	145	260	7487	na	na
658	146	233	10849	na	na
659	146	308	23350	na	na
660	146	314	93034	na	na
661	146	324	26319	na	na
662	146	350	39665	na	na
663	147	212	4269	na	na
664	147	283	56092	na	na
665	147	370	55010	na	na
666	147	377	52140	na	na
667	148	224	9754	na	na
668	148	319	87835	na	na
669	149	161	25861	na	na
670	149	264	44160	na	na
671	149	333	84713	na	na
672	150	277	60964	na	na
673	150	326	55357	na	na
674	151	152	63548	na	na
675	151	177	79432	na	na
676	151	254	46937	na	na
677	151	351	21087	na	na
678	152	163	51262	na	na
679	152	187	80645	na	na
680	152	319	94125	na	na
681	152	395	26585	na	na
682	153	225	37112	na	na
683	153	261	2239	na	na
684	153	334	7240	na	na
685	153	347	79407	na	na
686	154	239	50073	na	na
687	154	286	48640	na	na
688	154	304	68665	na	na
689	154	340	69144	na	na
690	154	347	63742	na	na
691	155	248	80128	na	na
692	155	397	98658	na	na
693	156	176	8263	na	na
694	156	185	35140	na	na
695	156	227	91755	na	na
696	156	256	29019	na	na
697	156	318	53979	na	na
698	156	330	26720	na	na
699	157	279	36435	na	na
700	157	316	49762	na	na
701	157	351	91345	na	na
702	158	188	20522	na	na
703	158	233	61156	na	na
704	158	273	96308	na	na
705	158	316	94998	na	na
706	159	189	13967	na	na
707	159	206	33786	na	na
708	159	302	45594	na	na
709	159	381	66421	na	na
710	160	194	72650	na	na
711	160	316	32	na	na
712	160	382	54494	na	na
713	161	180	47401	na	na
714	161	209	77373	na	na
715	161	296	42370	na	na
716	161	330	48541	na	na
717	162	250	75809	na	na
718	162	303	72961	na	na
719	162	309	16975	na	na
720	162	371	12807	na	na
721	163	230	334	na	na
722	163	253	430	na	na
723	163	335	35207	na	na
724	163	363	59087	na	na
725	163	379	79117	na	na
726	164	198	56287	na	na
727	164	203	95595	na	na
728	164	384	15108	na	na
729	165	324	13141	na	na
730	165	355	6164	na	na
731	165	367	93970	na	na
732	166	325	59536	na	na
733	167	215	57010	na	na
734	167	275	62015	na	na
735	167	336	10007	na	na
736	167	397	76797	na	na
737	168	207	859	na	na
738	168	273	5237	na	na
739	168	291	26678	na	na
740	168	299	29215	na	na
741	168	337	95954	na	na
742	168	365	91622	na	na
743	169	310	31428	na	na
744	170	197	47954	na	na
745	170	216	54588	na	na
746	170	366	54911	na	na
747	170	369	46386	na	na
748	171	294	75976	na	na
749	171	312	20250	na	na
750	171	321	11596	na	na
751	171	378	45210	na	na
752	172	232	87019	na	na
753	172	260	84201	na	na
754	172	306	31658	na	na
755	172	374	11039	na	na
756	172	383	33077	na	na
757	173	229	42970	na	na
758	173	239	19545	na	na
759	173	256	843	na	na
760	173	293	49521	na	na
761	173	314	52215	na	na
762	173	349	81483	na	na
763	173	396	7561	na	na
764	174	220	77696	na	na
765	174	233	59038	na	na
766	174	342	55624	na	na
767	174	367	21055	na	na
768	175	178	5305	na	na
769	175	182	82578	na	na
770	175	253	27688	na	na
771	175	288	61544	na	na
772	175	293	9494	na	na
773	175	358	29847	na	na
774	175	398	80485	na	na
775	176	224	45020	na	na
776	176	239	24264	na	na
777	176	244	25665	na	na
778	176	276	52334	na	na
779	176	330	80549	na	na
780	176	363	7587	na	na
781	176	389	82625	na	na
782	177	300	61537	na	na
783	177	312	19136	na	na
784	178	323	40366	na	na
785	179	252	40914	na	na
786	179	272	48589	na	na
787	179	334	83082	na	na
788	179	347	67104	na	na
789	180	183	49205	na	na
790	180	317	37731	na	na
791	181	267	92777	na	na
792	181	309	42084	na	na
793	181	310	73513	na	na
794	181	316	16746	na	na
795	182	209	33620	na	na
796	182	250	10003	na	na
797	182	270	83617	na	na
798	182	298	22328	na	na
799	182	326	95560	na	na
800	183	338	70281	na	na
801	184	222	78554	na	na
802	184	365	20770	na	na
803	185	330	71257	na	na
804	185	393	59635	na	na
805	186	303	11207	na	na
806	187	255	1236	na	na
807	187	264	51910	na	na
808	187	272	12613	na	na
809	187	279	55853	na	na
810	188	239	34063	na	na
811	188	253	22177	na	na
812	188	267	48752	na	na
813	189	393	58834	na	na
814	190	301	22962	na	na
815	190	362	76530	na	na
816	190	393	1831	na	na
817	191	197	60937	na	na
818	191	218	9319	na	na
819	191	231	8790	na	na
820	191	314	11514	na	na
821	191	356	78570	na	na
822	192	216	25928	na	na
823	192	217	98005	na	na
824	192	274	45896	na	na
825	192	321	10477	na	na
826	192	323	16320	na	na
827	193	292	97193	na	na
828	193	350	60406	na	na
829	194	216	33258	na	na
830	194	369	42721	na	na
831	194	381	94259	na	na
832	195	332	1550	na	na
833	195	357	98675	na	na
834	196	201	53175	na	na
835	196	206	83879	na	na
836	196	350	1360	na	na
837	196	359	93472	na	na
838	197	264	13144	na	na
839	197	374	34655	na	na
840	198	231	69330	na	na
841	198	367	29132	na	na
842	198	383	49166	na	na
843	199	261	26276	na	na
844	199	324	34502	na	na
845	199	395	94663	na	na
846	200	368	40672	na	na
847	201	273	90317	na	na
848	201	308	25604	na	na
849	201	350	56108	na	na
850	202	219	83306	na	na
851	202	245	84715	na	na
852	202	352	22382	na	na
853	202	365	83810	na	na
854	203	216	40544	na	na
855	203	227	46764	na	na
856	203	285	93285	na	na
857	203	295	58644	na	na
858	203	344	81403	na	na
859	204	223	18551	na	na
860	205	249	22003	na	na
861	205	292	74632	na	na
862	206	227	84709	na	na
863	206	289	52555	na	na
864	206	314	91932	na	na
865	206	332	1912	na	na
866	206	352	81181	na	na
867	206	361	43745	na	na
868	207	356	83103	na	na
869	207	377	5889	na	na
870	207	382	71189	na	na
871	208	279	46259	na	na
872	208	307	46572	na	na
873	208	379	34863	na	na
874	209	239	13508	na	na
875	209	357	68908	na	na
876	210	214	35371	na	na
877	210	223	78449	na	na
878	211	255	2041	na	na
879	211	259	96069	na	na
880	211	333	62655	na	na
881	212	383	31674	na	na
882	212	398	35095	na	na
883	213	371	3999	na	na
884	214	304	14917	na	na
885	214	395	3519	na	na
886	215	265	7007	na	na
887	215	287	2255	na	na
888	216	325	76756	na	na
889	216	384	57740	na	na
890	216	398	25896	na	na
891	217	263	81082	na	na
892	217	309	60590	na	na
893	217	362	33335	na	na
894	218	380	53467	na	na
895	219	249	3576	na	na
896	219	266	62807	na	na
897	219	307	33874	na	na
898	220	232	86786	na	na
899	220	326	7732	na	na
900	221	224	94394	na	na
901	221	241	60049	na	na
902	221	364	64585	na	na
903	221	376	92749	na	na
904	222	250	87754	na	na
905	222	280	41608	na	na
906	222	385	18217	na	na
907	223	351	10293	na	na
908	223	371	64569	na	na
909	224	333	73086	na	na
910	224	374	42493	na	na
911	224	400	19214	na	na
912	225	243	33285	na	na
913	225	285	39426	na	na
914	225	288	48313	na	na
915	225	303	16346	na	na
916	225	344	91972	na	na
917	225	347	14825	na	na
918	226	232	46152	na	na
919	227	278	36621	na	na
920	227	381	36209	na	na
921	228	244	80305	na	na
922	228	355	71198	na	na
923	228	361	19532	na	na
924	228	396	14339	na	na
925	229	233	58141	na	na
926	229	252	69367	na	na
927	230	285	43089	na	na
928	230	321	90285	na	na
929	231	233	49531	na	na
930	231	306	84040	na	na
931	231	316	27101	na	na
932	231	342	81558	na	na
933	231	362	8268	na	na
934	231	371	68767	na	na
935	232	344	87090	na	na
936	232	376	13886	na	na
937	233	293	73993	na	na
938	234	236	82412	na	na
939	234	259	4256	na	na
940	234	262	18122	na	na
941	234	264	535	na	na
942	234	277	11554	na	na
943	234	296	36268	na	na
944	234	388	91468	na	na
945	235	245	48065	na	na
946	235	365	2675	na	na
947	236	237	61711	na	na
948	237	277	79913	na	na
949	237	400	81528	na	na
950	238	283	39170	na	na
951	238	343	57349	na	na
952	238	356	62906	na	na
953	238	364	81955	na	na
954	239	335	7535	na	na
955	240	264	94842	na	na
956	240	309	22261	na	na
957	240	310	58194	na	na
958	240	314	9758	na	na
959	240	316	89624	na	na
960	241	332	98093	na	na
961	242	264	13534	na	na
962	242	296	50113	na	na
963	247	314	20527	na	na
964	248	317	17023	na	na
965	250	290	90686	na	na
966	250	341	48330	na	na
967	250	348	48293	na	na
968	250	389	15880	na	na
969	251	325	8015	na	na
970	251	349	96494	na	na
971	252	294	39604	na	na
972	252	319	66375	na	na
973	252	396	24678	na	na
974	253	263	44938	na	na
975	253	353	42071	na	na
976	254	266	90227	na	na
977	254	362	84637	na	na
978	255	358	24636	na	na
979	255	366	88651	na	na
980	256	302	93232	na	na
981	256	355	6442	na	na
982	257	343	96601	na	na
983	257	364	12118	na	na
984	258	341	4879	na	na
985	258	372	4917	na	na
986	258	383	77	na	na
987	259	339	90907	na	na
988	260	323	14033	na	na
989	260	345	54854	na	na
990	260	354	22628	na	na
991	261	287	90211	na	na
992	261	315	31063	na	na
993	261	323	59085	na	na
994	263	316	60520	na	na
995	263	397	81821	na	na
996	264	313	98832	na	na
997	265	289	26847	na	na
998	265	315	11946	na	na
999	265	317	13405	na	na
1000	266	287	50265	na	na
1001	266	326	86576	na	na
1002	267	290	85995	na	na
1003	267	296	17193	na	na
1004	267	316	27846	na	na
1005	268	281	37847	na	na
1006	268	320	87994	na	na
1007	268	398	59709	na	na
1008	269	316	91087	na	na
1009	269	325	24399	na	na
1010	269	331	18397	na	na
1011	269	340	53712	na	na
1012	270	315	38074	na	na
1013	270	331	5647	na	na
1014	270	375	51111	na	na
1015	270	379	34717	na	na
1016	271	282	21183	na	na
1017	272	287	27939	na	na
1018	272	331	5853	na	na
1019	273	284	8753	na	na
1020	273	382	6770	na	na
1021	275	339	30177	na	na
1022	276	292	86293	na	na
1023	276	299	61222	na	na
1024	276	338	76184	na	na
1025	276	339	53048	na	na
1026	276	380	21055	na	na
1027	277	380	21932	na	na
1028	278	358	35420	na	na
1029	280	357	92971	na	na
1030	281	317	91366	na	na
1031	281	340	40090	na	na
1032	281	386	18104	na	na
1033	282	398	66039	na	na
1034	283	338	98501	na	na
1035	284	329	44335	na	na
1036	285	318	40068	na	na
1037	285	371	78128	na	na
1038	286	308	1285	na	na
1039	286	363	93383	na	na
1040	286	387	80913	na	na
1041	287	327	50303	na	na
1042	287	390	64651	na	na
1043	288	321	88571	na	na
1044	289	324	22906	na	na
1045	289	355	46385	na	na
1046	291	293	19450	na	na
1047	292	344	28110	na	na
1048	292	346	57507	na	na
1049	293	376	8084	na	na
1050	294	327	30903	na	na
1051	294	350	68631	na	na
1052	294	361	53907	na	na
1053	296	308	97461	na	na
1054	296	317	68202	na	na
1055	296	328	9006	na	na
1056	297	340	39128	na	na
1057	297	367	29512	na	na
1058	297	369	68641	na	na
1059	298	359	54015	na	na
1060	299	304	11331	na	na
1061	299	326	91815	na	na
1062	300	341	25309	na	na
1063	302	312	7065	na	na
1064	302	338	1223	na	na
1065	302	339	30019	na	na
1066	302	340	8177	na	na
1067	303	317	63444	na	na
1068	303	357	50352	na	na
1069	304	360	39161	na	na
1070	307	390	78646	na	na
1071	308	341	36985	na	na
1072	309	322	2723	na	na
1073	309	349	40255	na	na
1074	309	351	42979	na	na
1075	309	361	58145	na	na
1076	312	385	72608	na	na
1077	313	322	25490	na	na
1078	313	328	54888	na	na
1079	313	354	39845	na	na
1080	313	366	88024	na	na
1081	314	398	67589	na	na
1082	315	349	71443	na	na
1083	315	355	7822	na	na
1084	316	333	51522	na	na
1085	316	383	85096	na	na
1086	317	319	85216	na	na
1087	317	329	50467	na	na
1088	317	345	89561	na	na
1089	317	347	74777	na	na
1090	317	380	23273	na	na
1091	318	349	56247	na	na
1092	318	387	4109	na	na
1093	319	385	46734	na	na
1094	319	400	4975	na	na
1095	321	322	97570	na	na
1096	321	348	86043	na	na
1097	324	326	54375	na	na
1098	324	371	10577	na	na
1099	325	349	41940	na	na
1100	325	362	97191	na	na
1101	325	381	34869	na	na
1102	326	370	71527	na	na
1103	326	384	40181	na	na
1104	328	371	59946	na	na
1105	328	376	96155	na	na
1106	328	388	7468	na	na
1107	328	400	23925	na	na
1108	332	353	9649	na	na
1109	332	392	50529	na	na
1110	333	348	23255	na	na
1111	334	346	63421	na	na
1112	334	354	14976	na	na
1113	336	341	15661	na	na
1114	337	342	38653	na	na
1115	337	384	58526	na	na
1116	339	375	75712	na	na
1117	340	343	92123	na	na
1118	340	364	97842	na	na
1119	340	381	63093	na	na
1120	341	345	70338	na	na
1121	341	374	84503	na	na
1122	342	347	82119	na	na
1123	343	387	28881	na	na
1124	345	376	54499	na	na
1125	348	390	25016	na	na
1126	350	371	80873	na	na
1127	351	366	98044	na	na
1128	352	363	48131	na	na
1129	355	397	92021	na	na
1130	355	400	30894	na	na
1131	356	376	4572	na	na
1132	356	386	6098	na	na
1133	358	387	3643	na	na
1134	364	381	45894	na	na
1135	371	400	38049	na	na
1136	374	384	77229	na	na
1137	375	385	45165	na	na
1138	376	382	57576	na	na
1139	377	382	16779	na	na
1140	378	397	42097	na	na
1141	379	389	53395	na	na
1142	384	393	99645	na	na
1143	387	396	69482	na	na
1144	388	398	34707	na	na
ring
